c WMC file for PBN EPFL/random_control/ctrl_distill_EPFL/random_control/ctrl_miter written by probABC
p cnf 174 435
30 -1 -4 0
-30 1 0
-30 4 0
31 5 -30 0
-31 -5 0
-31 30 0
32 -4 -5 0
-32 4 0
-32 5 0
33 4 5 0
-33 -4 0
-33 -5 0
34 32 33 0
-34 -32 0
-34 -33 0
35 8 34 0
-35 -8 0
-35 -34 0
36 -8 -34 0
-36 8 0
-36 34 0
37 35 36 0
-37 -35 0
-37 -36 0
38 1 -37 0
-38 -1 0
-38 37 0
39 31 38 0
-39 -31 0
-39 -38 0
40 -2 39 0
-40 2 0
-40 -39 0
41 1 -32 0
-41 -1 0
-41 32 0
42 10 41 0
-42 -10 0
-42 -41 0
43 -10 -41 0
-43 10 0
-43 41 0
44 42 43 0
-44 -42 0
-44 -43 0
45 2 -44 0
-45 -2 0
-45 44 0
46 40 45 0
-46 -40 0
-46 -45 0
47 -11 46 0
-47 11 0
-47 -46 0
48 11 -46 0
-48 -11 0
-48 46 0
49 47 48 0
-49 -47 0
-49 -48 0
50 -1 -5 0
-50 1 0
-50 5 0
51 2 32 0
-51 -2 0
-51 -32 0
52 -2 -32 0
-52 2 0
-52 32 0
53 33 50 0
-53 -33 0
-53 -50 0
54 51 -53 0
-54 -51 0
-54 53 0
55 52 -54 0
-55 -52 0
-55 54 0
56 49 55 0
-56 -49 0
-56 -55 0
57 -49 -55 0
-57 49 0
-57 55 0
58 3 56 0
-58 -3 0
-58 -56 0
59 57 -58 0
-59 -57 0
-59 58 0
60 2 31 0
-60 -2 0
-60 -31 0
61 3 60 0
-61 -3 0
-61 -60 0
62 -6 -32 0
-62 6 0
-62 32 0
63 -1 7 0
-63 1 0
-63 -7 0
64 -62 -63 0
-64 62 0
-64 63 0
65 -2 64 0
-65 2 0
-65 -64 0
66 -61 65 0
-66 61 0
-66 -65 0
67 26 62 0
-67 -26 0
-67 -62 0
68 -26 -62 0
-68 26 0
-68 62 0
69 -63 67 0
-69 63 0
-69 -67 0
70 68 -69 0
-70 -68 0
-70 69 0
71 -2 70 0
-71 2 0
-71 -70 0
72 -61 71 0
-72 61 0
-72 -71 0
73 -27 72 0
-73 27 0
-73 -72 0
74 27 -72 0
-74 -27 0
-74 72 0
75 73 74 0
-75 -73 0
-75 -74 0
76 -66 75 0
-76 66 0
-76 -75 0
77 66 -75 0
-77 -66 0
-77 75 0
78 76 77 0
-78 -76 0
-78 -77 0
79 -2 44 0
-79 2 0
-79 -44 0
80 51 79 0
-80 -51 0
-80 -79 0
81 -3 80 0
-81 3 0
-81 -80 0
82 28 81 0
-82 -28 0
-82 -81 0
83 -1 -2 0
-83 1 0
-83 2 0
84 -32 83 0
-84 32 0
-84 -83 0
85 -3 84 0
-85 3 0
-85 -84 0
86 -82 85 0
-86 82 0
-86 -85 0
87 82 -85 0
-87 -82 0
-87 85 0
88 86 87 0
-88 -86 0
-88 -87 0
89 -3 -21 0
-89 3 0
-89 21 0
90 3 -20 0
-90 -3 0
-90 20 0
91 22 90 0
-91 -22 0
-91 -90 0
92 89 91 0
-92 -89 0
-92 -91 0
93 22 -89 0
-93 -22 0
-93 89 0
94 2 3 0
-94 -2 0
-94 -3 0
95 -1 -8 0
-95 1 0
-95 8 0
96 -94 -95 0
-96 94 0
-96 95 0
97 1 -2 0
-97 -1 0
-97 2 0
98 -4 -12 0
-98 4 0
-98 12 0
99 -97 -98 0
-99 97 0
-99 98 0
100 2 -10 0
-100 -2 0
-100 10 0
101 13 100 0
-101 -13 0
-101 -100 0
102 99 -101 0
-102 -99 0
-102 101 0
103 3 102 0
-103 -3 0
-103 -102 0
104 -2 -3 0
-104 2 0
-104 3 0
105 -10 -104 0
-105 10 0
-105 104 0
106 25 105 0
-106 -25 0
-106 -105 0
107 -25 -105 0
-107 25 0
-107 105 0
108 106 107 0
-108 -106 0
-108 -107 0
109 3 84 0
-109 -3 0
-109 -84 0
110 -5 -14 0
-110 5 0
-110 14 0
111 109 -110 0
-111 -109 0
-111 110 0
112 -2 -33 0
-112 2 0
-112 33 0
113 -3 112 0
-113 3 0
-113 -112 0
114 -17 113 0
-114 17 0
-114 -113 0
115 -2 -23 0
-115 2 0
-115 23 0
116 24 115 0
-116 -24 0
-116 -115 0
117 -24 -115 0
-117 24 0
-117 115 0
118 -3 116 0
-118 3 0
-118 -116 0
119 117 -118 0
-119 -117 0
-119 118 0
120 -1 -32 0
-120 1 0
-120 32 0
121 2 -120 0
-121 -2 0
-121 120 0
122 52 121 0
-122 -52 0
-122 -121 0
123 3 122 0
-123 -3 0
-123 -122 0
124 -8 -104 0
-124 8 0
-124 104 0
125 9 124 0
-125 -9 0
-125 -124 0
126 -9 -124 0
-126 9 0
-126 124 0
127 125 126 0
-127 -125 0
-127 -126 0
128 123 -127 0
-128 -123 0
-128 127 0
129 3 4 0
-129 -3 0
-129 -4 0
130 -5 -129 0
-130 5 0
-130 129 0
131 -97 -130 0
-131 97 0
-131 130 0
132 37 -104 0
-132 -37 0
-132 104 0
133 34 -104 0
-133 -34 0
-133 104 0
134 16 133 0
-134 -16 0
-134 -133 0
135 -16 -133 0
-135 16 0
-135 133 0
136 134 135 0
-136 -134 0
-136 -135 0
137 132 136 0
-137 -132 0
-137 -136 0
138 -132 -136 0
-138 132 0
-138 136 0
139 131 137 0
-139 -131 0
-139 -137 0
140 138 -139 0
-140 -138 0
-140 139 0
141 112 120 0
-141 -112 0
-141 -120 0
142 -3 141 0
-142 3 0
-142 -141 0
143 -41 -94 0
-143 41 0
-143 94 0
144 142 143 0
-144 -142 0
-144 -143 0
145 -1 -37 0
-145 1 0
-145 37 0
146 1 33 0
-146 -1 0
-146 -33 0
147 -2 146 0
-147 2 0
-147 -146 0
148 145 -147 0
-148 -145 0
-148 147 0
149 121 148 0
-149 -121 0
-149 -148 0
150 -3 149 0
-150 3 0
-150 -149 0
151 -44 -94 0
-151 44 0
-151 94 0
152 150 151 0
-152 -150 0
-152 -151 0
153 -15 152 0
-153 15 0
-153 -152 0
154 15 -152 0
-154 -15 0
-154 152 0
155 153 154 0
-155 -153 0
-155 -154 0
156 -144 155 0
-156 144 0
-156 -155 0
157 144 -155 0
-157 -144 0
-157 155 0
158 156 157 0
-158 -156 0
-158 -157 0
159 18 19 0
-159 -18 0
-159 -19 0
160 93 -159 0
-160 -93 0
-160 159 0
161 96 -160 0
-161 -96 0
-161 160 0
162 92 -161 0
-162 -92 0
-162 161 0
163 103 108 0
-163 -103 0
-163 -108 0
164 111 114 0
-164 -111 0
-164 -114 0
165 119 -164 0
-165 -119 0
-165 164 0
166 -162 -163 0
-166 162 0
-166 163 0
167 -165 -166 0
-167 165 0
-167 166 0
168 128 -167 0
-168 -128 0
-168 167 0
169 140 -168 0
-169 -140 0
-169 168 0
170 88 -169 0
-170 -88 0
-170 169 0
171 78 -170 0
-171 -78 0
-171 170 0
172 59 -171 0
-172 -59 0
-172 171 0
173 158 -172 0
-173 -158 0
-173 172 0
29 173 0
-29 -173 0
29 0
w 1 0.500000
w 2 0.500000
w 3 0.500000
w 4 0.500000
w 5 0.500000
w 6 0.500000
w 7 0.500000
w 8 0.125000
w 9 0.125000
w 10 0.125000
w 11 0.125000
w 12 0.125000
w 13 0.125000
w 14 0.125000
w 15 0.125000
w 16 0.125000
w 17 0.125000
w 18 0.125000
w 19 0.125000
w 20 0.125000
w 21 0.125000
w 22 0.125000
w 23 0.125000
w 24 0.125000
w 25 0.125000
w 26 0.125000
w 27 0.125000
w 28 0.125000
w 30 -1
w 31 -1
w 32 -1
w 33 -1
w 34 -1
w 35 -1
w 36 -1
w 37 -1
w 38 -1
w 39 -1
w 40 -1
w 41 -1
w 42 -1
w 43 -1
w 44 -1
w 45 -1
w 46 -1
w 47 -1
w 48 -1
w 49 -1
w 50 -1
w 51 -1
w 52 -1
w 53 -1
w 54 -1
w 55 -1
w 56 -1
w 57 -1
w 58 -1
w 59 -1
w 60 -1
w 61 -1
w 62 -1
w 63 -1
w 64 -1
w 65 -1
w 66 -1
w 67 -1
w 68 -1
w 69 -1
w 70 -1
w 71 -1
w 72 -1
w 73 -1
w 74 -1
w 75 -1
w 76 -1
w 77 -1
w 78 -1
w 79 -1
w 80 -1
w 81 -1
w 82 -1
w 83 -1
w 84 -1
w 85 -1
w 86 -1
w 87 -1
w 88 -1
w 89 -1
w 90 -1
w 91 -1
w 92 -1
w 93 -1
w 94 -1
w 95 -1
w 96 -1
w 97 -1
w 98 -1
w 99 -1
w 100 -1
w 101 -1
w 102 -1
w 103 -1
w 104 -1
w 105 -1
w 106 -1
w 107 -1
w 108 -1
w 109 -1
w 110 -1
w 111 -1
w 112 -1
w 113 -1
w 114 -1
w 115 -1
w 116 -1
w 117 -1
w 118 -1
w 119 -1
w 120 -1
w 121 -1
w 122 -1
w 123 -1
w 124 -1
w 125 -1
w 126 -1
w 127 -1
w 128 -1
w 129 -1
w 130 -1
w 131 -1
w 132 -1
w 133 -1
w 134 -1
w 135 -1
w 136 -1
w 137 -1
w 138 -1
w 139 -1
w 140 -1
w 141 -1
w 142 -1
w 143 -1
w 144 -1
w 145 -1
w 146 -1
w 147 -1
w 148 -1
w 149 -1
w 150 -1
w 151 -1
w 152 -1
w 153 -1
w 154 -1
w 155 -1
w 156 -1
w 157 -1
w 158 -1
w 159 -1
w 160 -1
w 161 -1
w 162 -1
w 163 -1
w 164 -1
w 165 -1
w 166 -1
w 167 -1
w 168 -1
w 169 -1
w 170 -1
w 171 -1
w 172 -1
w 173 -1
w 29 -1
